NAME          
ROWS
 N  OBJ
 L  c1
 L  c2
COLUMNS
    MARKER    'MARKER'                 'INTORG'
    x[1]      c1        63
    x[1]      c2        185
    x[1]      OBJ       -120
    x[2]      c1        253
    x[2]      c2        376
    x[2]      OBJ       -630
    x[3]      c1        130
    x[3]      c2        662
    x[3]      OBJ       -298
    x[4]      c1        523
    x[4]      c2        368
    x[4]      OBJ       -105
    x[5]      c1        87
    x[5]      c2        438
    x[5]      OBJ       -458
    x[6]      c1        399
    x[6]      c2        628
    x[6]      OBJ       -240
    x[7]      c1        192
    x[7]      c2        604
    x[7]      OBJ       -819
    x[8]      c1        138
    x[8]      c2        745
    x[8]      OBJ       -270
    x[9]      c1        464
    x[9]      c2        288
    x[9]      OBJ       -14
    x[10]     c1        994
    x[10]     c2        580
    x[10]     OBJ       -237
RHS
    rhs       c1        1622
    rhs       c2        2437
RANGES
BOUNDS
 BV bounds    x[1]
 BV bounds    x[2]
 BV bounds    x[3]
 BV bounds    x[4]
 BV bounds    x[5]
 BV bounds    x[6]
 BV bounds    x[7]
 BV bounds    x[8]
 BV bounds    x[9]
 BV bounds    x[10]
ENDATA
